ampl_outputs/A-n11-k3-m0-b3_v2_ampl_.txt.out
Gurobi 12.0.1:   lim:time = 28800
  mip:bestbound = 1
Set parameter LogToConsole to value 1
  tech:outlev = 1
Set parameter InfUnbdInfo to value 1
Gurobi Optimizer version 12.0.1 build v12.0.1rc0 (win64 - Windows 11.0 (22631.2))

CPU model: Intel(R) Core(TM) i7-10700 CPU @ 2.90GHz, instruction set [SSE2|AVX|AVX2]
Thread count: 8 physical cores, 16 logical processors, using up to 16 threads

Non-default parameters:
TimeLimit  28800
InfUnbdInfo  1

Optimize a model with 302 rows, 586 columns and 3689 nonzeros
Model fingerprint: 0xa5234fab
Model has 6 quadratic constraints
Variable types: 17 continuous, 569 integer (0 binary)
Coefficient statistics:
  Matrix range     [1e+00, 1e+05]
  QMatrix range    [7e+00, 2e+01]
  QLMatrix range   [1e+00, 2e+01]
  Objective range  [3e+01, 3e+02]
  Bounds range     [1e+00, 1e+00]
  RHS range        [1e+00, 1e+05]
  QRHS range       [5e+01, 1e+02]
Presolve removed 62 rows and 23 columns
Presolve time: 0.00s
Presolved: 399 rows, 719 columns, 3843 nonzeros
Variable types: 13 continuous, 706 integer (706 binary)

Root relaxation: objective 1.021815e+03, 60 iterations, 0.00 seconds (0.00 work units)

    Nodes    |    Current Node    |     Objective Bounds      |     Work
 Expl Unexpl |  Obj  Depth IntInf | Incumbent    BestBd   Gap | It/Node Time

     0     0 1021.81458    0   15          - 1021.81458      -     -    0s
H    0     0                    1956.0000000 1021.81458  47.8%     -    0s
H    0     0                    1724.1900000 1021.81458  40.7%     -    0s
     0     0 1054.02151    0   15 1724.19000 1054.02151  38.9%     -    0s
     0     0 1056.12000    0   13 1724.19000 1056.12000  38.7%     -    0s
     0     0 1056.12000    0   13 1724.19000 1056.12000  38.7%     -    0s
     0     0 1071.92729    0   14 1724.19000 1071.92729  37.8%     -    0s
     0     0 1098.40500    0   13 1724.19000 1098.40500  36.3%     -    0s
     0     0 1098.40500    0   13 1724.19000 1098.40500  36.3%     -    0s
H    0     0                    1373.1000000 1098.40500  20.0%     -    0s
     0     0 1098.40500    0   18 1373.10000 1098.40500  20.0%     -    0s
     0     0 1098.40500    0   18 1373.10000 1098.40500  20.0%     -    0s
     0     0 1098.40500    0   18 1373.10000 1098.40500  20.0%     -    0s
     0     0 1098.40500    0   19 1373.10000 1098.40500  20.0%     -    0s
     0     0 1105.80000    0    8 1373.10000 1105.80000  19.5%     -    0s
     0     0 1105.80000    0   11 1373.10000 1105.80000  19.5%     -    0s
     0     0 1105.80000    0    9 1373.10000 1105.80000  19.5%     -    0s
     0     0 1105.80000    0    8 1373.10000 1105.80000  19.5%     -    0s
     0     2 1113.19500    0    8 1373.10000 1113.19500  18.9%     -    0s
H   37    63                    1276.8000000 1130.46886  11.5%  14.6    0s
*  337   214              14    1276.1700000 1136.94000  10.9%   7.5    0s
*  388   214              11    1267.7100000 1139.70080  10.1%   7.6    0s
*  590   332              14    1250.9700000 1139.70662  8.89%   7.4    0s
H  687   360                    1228.8300000 1139.88312  7.24%   7.2    0s
*  707   360              12    1189.3200000 1139.88312  4.16%   7.2    0s
*  805   288               8    1181.5200000 1139.88312  3.52%   7.1    0s
* 1045   147              12    1172.1300000 1141.60274  2.60%   7.0    0s

Cutting planes:
  Learned: 2
  Gomory: 2
  Cover: 6
  Implied bound: 17
  MIR: 4
  Inf proof: 6
  Zero half: 1
  RLT: 40

Explored 1152 nodes (7900 simplex iterations) in 0.30 seconds (0.25 work units)
Thread count was 16 (of 16 available processors)

Solution count 10: 1172.13 1181.52 1189.32 ... 1724.19

Optimal solution found (tolerance 1.00e-04)
Best objective 1.172130000000e+03, best bound 1.172130000000e+03, gap 0.0000%

AMPL MP initial flat model has 586 variables (0 integer, 569 binary);
Objectives: 1 linear; 
Constraints:  302 linear; 6 quadratic;

AMPL MP final model has 586 variables (0 integer, 569 binary);
Objectives: 1 linear; 
Constraints:  302 linear; 6 quadratic;


-----RESULTS INFO-----
running_time:  0.36
TC.best_bound:  1172.13
TC:  1172.13
MIP Gap (%):  0
=== Vehicle Routes ===
Vehicle 1: 0 → 4
Vehicle 1: 4 → 0
Vehicle 2: 0 → 12
Vehicle 2: 12 → 0
Vehicle 3: 0 → 14
Vehicle 3: 1 → 2
Vehicle 3: 2 → 5
Vehicle 3: 3 → 0
Vehicle 3: 5 → 13
Vehicle 3: 13 → 3
Vehicle 3: 14 → 1

=== Full Vehicle Routes ===
Vehicle 1: 0 → 4 → 0
Vehicle 2: 0 → 12 → 0
Vehicle 3: 0 → 14 → 1 → 2 → 5 → 13 → 3 → 0
Customer assigment to PL: u variables:
6 14
7 12
8 13
9 12
10 14
11 13
Node is served by regular vehicle: g variables:
1
2
3
4
5
14
12
13
Customer assigment to Home delivery: gm variables:
1
2
3
4
5
Customer's demand delivered to PL: l variables:
6
7
8
9
10
11
